
Gurobi 6.0.5 (linux64) logging started Sun Oct 16 15:27:27 2016

Server capacity available on 10.124.15.32 - running now
Optimize a model with 83 rows, 578 columns and 2210 nonzeros
Coefficient statistics:
  Matrix range    [1e-01, 1e+12]
  Objective range [1e+00, 1e+02]
  Bounds range    [1e+00, 1e+00]
  RHS range       [1e+00, 1e+00]
Warning: Model contains large matrix coefficient range
         Consider reformulating model or setting NumericFocus parameter
         to avoid numerical issues.
Found heuristic solution: objective -0
Presolve removed 83 rows and 578 columns
Presolve time: 0.00s

Explored 0 nodes (0 simplex iterations) in 0.00 seconds
Thread count was 1 (of 24 available processors)

Optimal solution found (tolerance 1.00e-04)
Best objective -0.000000000000e+00, best bound -0.000000000000e+00, gap 0.0%
Optimize a model with 83 rows, 578 columns and 2210 nonzeros
Coefficient statistics:
  Matrix range    [1e-01, 1e+12]
  Objective range [1e+00, 1e+02]
  Bounds range    [1e+00, 1e+00]
  RHS range       [1e+00, 1e+00]
Warning: Model contains large matrix coefficient range
         Consider reformulating model or setting NumericFocus parameter
         to avoid numerical issues.
Found heuristic solution: objective -0
Presolve removed 83 rows and 578 columns
Presolve time: 0.00s

Explored 0 nodes (0 simplex iterations) in 0.00 seconds
Thread count was 1 (of 24 available processors)

Optimal solution found (tolerance 1.00e-04)
Best objective -0.000000000000e+00, best bound -0.000000000000e+00, gap 0.0%

Gurobi 6.0.5 (linux64) logging started Sun Oct 16 15:42:30 2016

Server capacity available on 10.124.15.32 - running now
Optimize a model with 83 rows, 578 columns and 2210 nonzeros
Coefficient statistics:
  Matrix range    [1e-01, 1e+12]
  Objective range [1e+00, 1e+02]
  Bounds range    [1e+00, 1e+00]
  RHS range       [1e+00, 1e+00]
Warning: Model contains large matrix coefficient range
         Consider reformulating model or setting NumericFocus parameter
         to avoid numerical issues.
Found heuristic solution: objective -0
Presolve removed 83 rows and 578 columns
Presolve time: 0.00s

Explored 0 nodes (0 simplex iterations) in 0.00 seconds
Thread count was 1 (of 24 available processors)

Optimal solution found (tolerance 1.00e-04)
Best objective -0.000000000000e+00, best bound -0.000000000000e+00, gap 0.0%

Gurobi 6.0.5 (linux64) logging started Sun Oct 16 15:43:55 2016

Server capacity available on 10.124.15.32 - running now
Optimize a model with 83 rows, 578 columns and 2210 nonzeros
Coefficient statistics:
  Matrix range    [1e-01, 1e+12]
  Objective range [1e+00, 1e+02]
  Bounds range    [1e+00, 1e+00]
  RHS range       [1e+00, 1e+00]
Warning: Model contains large matrix coefficient range
         Consider reformulating model or setting NumericFocus parameter
         to avoid numerical issues.
Found heuristic solution: objective -0
Presolve removed 83 rows and 578 columns
Presolve time: 0.00s

Explored 0 nodes (0 simplex iterations) in 0.00 seconds
Thread count was 1 (of 24 available processors)

Optimal solution found (tolerance 1.00e-04)
Best objective -0.000000000000e+00, best bound -0.000000000000e+00, gap 0.0%

Gurobi 6.0.5 (linux64) logging started Sun Oct 16 16:23:43 2016

Server capacity available on 10.124.15.32 - running now
Optimize a model with 83 rows, 578 columns and 2210 nonzeros
Coefficient statistics:
  Matrix range    [1e-01, 1e+12]
  Objective range [1e+00, 1e+02]
  Bounds range    [1e+00, 1e+00]
  RHS range       [1e+00, 1e+00]
Warning: Model contains large matrix coefficient range
         Consider reformulating model or setting NumericFocus parameter
         to avoid numerical issues.
Found heuristic solution: objective -1115.57
Presolve removed 34 rows and 34 columns
Presolve time: 0.01s
Presolved: 49 rows, 544 columns, 1088 nonzeros
Variable types: 0 continuous, 544 integer (544 binary)

Root relaxation: objective -5.326786e+02, 34 iterations, 0.00 seconds

    Nodes    |    Current Node    |     Objective Bounds      |     Work
 Expl Unexpl |  Obj  Depth IntInf | Incumbent    BestBd   Gap | It/Node Time

*    0     0               0    -532.6786372 -532.67864  0.00%     -    0s

Explored 0 nodes (34 simplex iterations) in 0.02 seconds
Thread count was 12 (of 24 available processors)

Optimal solution found (tolerance 1.00e-04)
Best objective -5.326786372416e+02, best bound -5.326786372416e+02, gap 0.0%

Gurobi 6.0.5 (linux64) logging started Mon Oct 17 09:10:31 2016

Server capacity available on 10.124.15.32 - running now
Optimize a model with 83 rows, 578 columns and 2210 nonzeros
Coefficient statistics:
  Matrix range    [1e-01, 1e+12]
  Objective range [7e-01, 4e+01]
  Bounds range    [1e+00, 1e+00]
  RHS range       [1e+00, 1e+00]
Warning: Model contains large matrix coefficient range
         Consider reformulating model or setting NumericFocus parameter
         to avoid numerical issues.
Found heuristic solution: objective -398.276
Presolve removed 34 rows and 34 columns
Presolve time: 0.01s
Presolved: 49 rows, 544 columns, 1088 nonzeros
Variable types: 0 continuous, 544 integer (544 binary)

Root relaxation: objective -1.771086e+02, 39 iterations, 0.00 seconds

    Nodes    |    Current Node    |     Objective Bounds      |     Work
 Expl Unexpl |  Obj  Depth IntInf | Incumbent    BestBd   Gap | It/Node Time

*    0     0               0    -177.1086229 -177.10862  0.00%     -    0s

Explored 0 nodes (39 simplex iterations) in 0.02 seconds
Thread count was 12 (of 24 available processors)

Optimal solution found (tolerance 1.00e-04)
Best objective -1.771086229238e+02, best bound -1.771086229238e+02, gap 0.0%

Gurobi 6.0.5 (linux64) logging started Mon Oct 17 09:12:00 2016

Server capacity available on 10.124.15.32 - running now
Optimize a model with 83 rows, 578 columns and 2210 nonzeros
Coefficient statistics:
  Matrix range    [1e-01, 1e+12]
  Objective range [7e-01, 4e+01]
  Bounds range    [1e+00, 1e+00]
  RHS range       [1e+00, 1e+00]
Warning: Model contains large matrix coefficient range
         Consider reformulating model or setting NumericFocus parameter
         to avoid numerical issues.
Found heuristic solution: objective -398.276
Presolve removed 34 rows and 34 columns
Presolve time: 0.01s
Presolved: 49 rows, 544 columns, 1088 nonzeros
Variable types: 0 continuous, 544 integer (544 binary)

Root relaxation: objective -1.771086e+02, 39 iterations, 0.00 seconds

    Nodes    |    Current Node    |     Objective Bounds      |     Work
 Expl Unexpl |  Obj  Depth IntInf | Incumbent    BestBd   Gap | It/Node Time

*    0     0               0    -177.1086229 -177.10862  0.00%     -    0s

Explored 0 nodes (39 simplex iterations) in 0.02 seconds
Thread count was 12 (of 24 available processors)

Optimal solution found (tolerance 1.00e-04)
Best objective -1.771086229238e+02, best bound -1.771086229238e+02, gap 0.0%

Gurobi 6.0.5 (linux64) logging started Mon Oct 17 09:12:08 2016

Server capacity available on 10.124.15.32 - running now
Optimize a model with 83 rows, 578 columns and 2210 nonzeros
Coefficient statistics:
  Matrix range    [1e-01, 1e+12]
  Objective range [7e-01, 4e+01]
  Bounds range    [1e+00, 1e+00]
  RHS range       [1e+00, 1e+00]
Warning: Model contains large matrix coefficient range
         Consider reformulating model or setting NumericFocus parameter
         to avoid numerical issues.
Found heuristic solution: objective -398.276
Presolve removed 34 rows and 34 columns
Presolve time: 0.01s
Presolved: 49 rows, 544 columns, 1088 nonzeros
Variable types: 0 continuous, 544 integer (544 binary)

Root relaxation: objective -1.771086e+02, 39 iterations, 0.00 seconds

    Nodes    |    Current Node    |     Objective Bounds      |     Work
 Expl Unexpl |  Obj  Depth IntInf | Incumbent    BestBd   Gap | It/Node Time

*    0     0               0    -177.1086229 -177.10862  0.00%     -    0s

Explored 0 nodes (39 simplex iterations) in 0.02 seconds
Thread count was 12 (of 24 available processors)

Optimal solution found (tolerance 1.00e-04)
Best objective -1.771086229238e+02, best bound -1.771086229238e+02, gap 0.0%

Gurobi 6.0.5 (linux64) logging started Mon Oct 17 09:14:24 2016

Server capacity available on 10.124.15.32 - running now
Optimize a model with 83 rows, 578 columns and 2210 nonzeros
Coefficient statistics:
  Matrix range    [1e-01, 1e+12]
  Objective range [7e-01, 4e+01]
  Bounds range    [1e+00, 1e+00]
  RHS range       [1e+00, 1e+00]
Warning: Model contains large matrix coefficient range
         Consider reformulating model or setting NumericFocus parameter
         to avoid numerical issues.
Found heuristic solution: objective -398.276
Presolve removed 34 rows and 34 columns
Presolve time: 0.01s
Presolved: 49 rows, 544 columns, 1088 nonzeros
Variable types: 0 continuous, 544 integer (544 binary)

Root relaxation: objective -1.771086e+02, 39 iterations, 0.00 seconds

    Nodes    |    Current Node    |     Objective Bounds      |     Work
 Expl Unexpl |  Obj  Depth IntInf | Incumbent    BestBd   Gap | It/Node Time

*    0     0               0    -177.1086229 -177.10862  0.00%     -    0s

Explored 0 nodes (39 simplex iterations) in 0.02 seconds
Thread count was 12 (of 24 available processors)

Optimal solution found (tolerance 1.00e-04)
Best objective -1.771086229238e+02, best bound -1.771086229238e+02, gap 0.0%

Gurobi 6.0.5 (linux64) logging started Mon Oct 17 09:16:56 2016

Server capacity available on 10.124.15.32 - running now
Optimize a model with 83 rows, 578 columns and 2210 nonzeros
Coefficient statistics:
  Matrix range    [1e-01, 1e+12]
  Objective range [7e-01, 4e+01]
  Bounds range    [1e+00, 1e+00]
  RHS range       [1e+00, 1e+00]
Warning: Model contains large matrix coefficient range
         Consider reformulating model or setting NumericFocus parameter
         to avoid numerical issues.
Found heuristic solution: objective -398.276
Presolve removed 34 rows and 34 columns
Presolve time: 0.01s
Presolved: 49 rows, 544 columns, 1088 nonzeros
Variable types: 0 continuous, 544 integer (544 binary)

Root relaxation: objective -1.771086e+02, 39 iterations, 0.00 seconds

    Nodes    |    Current Node    |     Objective Bounds      |     Work
 Expl Unexpl |  Obj  Depth IntInf | Incumbent    BestBd   Gap | It/Node Time

*    0     0               0    -177.1086229 -177.10862  0.00%     -    0s

Explored 0 nodes (39 simplex iterations) in 0.02 seconds
Thread count was 12 (of 24 available processors)

Optimal solution found (tolerance 1.00e-04)
Best objective -1.771086229238e+02, best bound -1.771086229238e+02, gap 0.0%

Gurobi 6.0.5 (linux64) logging started Mon Oct 17 09:20:39 2016

Server capacity available on 10.124.15.32 - running now
Optimize a model with 83 rows, 578 columns and 2210 nonzeros
Coefficient statistics:
  Matrix range    [1e-01, 1e+12]
  Objective range [7e-01, 4e+01]
  Bounds range    [1e+00, 1e+00]
  RHS range       [1e+00, 1e+00]
Warning: Model contains large matrix coefficient range
         Consider reformulating model or setting NumericFocus parameter
         to avoid numerical issues.
Found heuristic solution: objective -398.276
Presolve removed 34 rows and 34 columns
Presolve time: 0.01s
Presolved: 49 rows, 544 columns, 1088 nonzeros
Variable types: 0 continuous, 544 integer (544 binary)

Root relaxation: objective -1.771086e+02, 39 iterations, 0.00 seconds

    Nodes    |    Current Node    |     Objective Bounds      |     Work
 Expl Unexpl |  Obj  Depth IntInf | Incumbent    BestBd   Gap | It/Node Time

*    0     0               0    -177.1086229 -177.10862  0.00%     -    0s

Explored 0 nodes (39 simplex iterations) in 0.02 seconds
Thread count was 12 (of 24 available processors)

Optimal solution found (tolerance 1.00e-04)
Best objective -1.771086229238e+02, best bound -1.771086229238e+02, gap 0.0%

Gurobi 6.0.5 (linux64) logging started Mon Oct 17 09:22:23 2016

Server capacity available on 10.124.15.32 - running now
Optimize a model with 83 rows, 578 columns and 2210 nonzeros
Coefficient statistics:
  Matrix range    [1e-01, 1e+12]
  Objective range [7e-01, 4e+01]
  Bounds range    [1e+00, 1e+00]
  RHS range       [1e+00, 1e+00]
Warning: Model contains large matrix coefficient range
         Consider reformulating model or setting NumericFocus parameter
         to avoid numerical issues.
Found heuristic solution: objective -398.276
Presolve removed 34 rows and 34 columns
Presolve time: 0.01s
Presolved: 49 rows, 544 columns, 1088 nonzeros
Variable types: 0 continuous, 544 integer (544 binary)

Root relaxation: objective -1.771086e+02, 39 iterations, 0.00 seconds

    Nodes    |    Current Node    |     Objective Bounds      |     Work
 Expl Unexpl |  Obj  Depth IntInf | Incumbent    BestBd   Gap | It/Node Time

*    0     0               0    -177.1086229 -177.10862  0.00%     -    0s

Explored 0 nodes (39 simplex iterations) in 0.02 seconds
Thread count was 12 (of 24 available processors)

Optimal solution found (tolerance 1.00e-04)
Best objective -1.771086229238e+02, best bound -1.771086229238e+02, gap 0.0%
